(declare-fun e () String)
(declare-fun c () String)
(declare-fun g () String)
(declare-fun b () String)
(declare-fun d () String)
(declare-fun f () String)
(declare-fun a () String)
(declare-fun h () String)
(assert (= (str.++ h b g "fed") c))
(assert (= (str.++ g d c a a "c") (str.++ "c" f)))
(assert (= "fgeaf" e))

(check-sat)
